# Solution for model r5_t27_m5_9 Batch Number: 3
# Finished Task: 25 / 27
# Makespan: 733.0, Total Distance: 548.0, Total Time: 7.6921
# R O S F Batch
0 0 11 0.0 0.0 -1
1 1 16 0.0 0.0 -1
2 2 24 0.0 0.0 -1
3 3 15 0.0 0.0 -1
4 4 8 0.0 0.0 -1
5 1 13 563.0 602.0 1
6 0 -1 535.0 567.0 0
7 -1 -1 -1.0 -1.0 0
8 4 28 161.0 193.0 0
9 3 17 507.0 545.0 0
10 4 27 480.0 517.0 0
11 0 19 359.0 381.0 0
12 2 14 424.0 456.0 0
13 1 29 615.0 646.0 2
14 2 20 489.0 518.0 0
15 3 9 469.0 499.0 0
16 1 21 271.0 295.0 0
17 3 23 582.0 612.0 0
18 0 6 492.0 514.0 0
19 0 26 393.0 419.0 0
20 2 31 583.0 613.0 2
21 1 5 402.0 425.0 1
22 4 -1 613.0 643.0 2
23 3 30 636.0 675.0 2
24 2 12 283.0 314.0 0
25 -1 -1 -1.0 -1.0 2
26 0 18 453.0 478.0 0
27 4 22 553.0 583.0 0
28 4 10 419.0 441.0 0
29 1 -1 695.0 733.0 2
30 3 -1 694.0 733.0 2
31 2 -1 650.0 686.0 2
